c SSAT file for PBN EPFL/random_control/router_distill_EPFL/random_control/router_miter written by probABC
p cnf 648 1674
r 0.500000 1 0
r 0.500000 2 0
r 0.500000 3 0
r 0.500000 4 0
r 0.500000 5 0
r 0.500000 6 0
r 0.500000 7 0
r 0.500000 8 0
r 0.500000 9 0
r 0.500000 10 0
r 0.500000 11 0
r 0.500000 12 0
r 0.500000 13 0
r 0.500000 14 0
r 0.500000 15 0
r 0.500000 16 0
r 0.500000 17 0
r 0.500000 18 0
r 0.500000 19 0
r 0.500000 20 0
r 0.500000 21 0
r 0.500000 22 0
r 0.500000 23 0
r 0.500000 24 0
r 0.500000 25 0
r 0.500000 26 0
r 0.500000 27 0
r 0.500000 28 0
r 0.500000 29 0
r 0.500000 30 0
r 0.500000 31 0
r 0.500000 32 0
r 0.500000 33 0
r 0.500000 34 0
r 0.500000 35 0
r 0.500000 36 0
r 0.500000 37 0
r 0.500000 38 0
r 0.500000 39 0
r 0.500000 40 0
r 0.500000 41 0
r 0.500000 42 0
r 0.500000 43 0
r 0.500000 44 0
r 0.500000 45 0
r 0.500000 46 0
r 0.500000 47 0
r 0.500000 48 0
r 0.500000 49 0
r 0.500000 50 0
r 0.500000 51 0
r 0.500000 52 0
r 0.500000 53 0
r 0.500000 54 0
r 0.500000 55 0
r 0.500000 56 0
r 0.500000 57 0
r 0.500000 58 0
r 0.500000 59 0
r 0.500000 60 0
r 0.125000 61 0
r 0.125000 62 0
r 0.125000 63 0
r 0.125000 64 0
r 0.125000 65 0
r 0.125000 66 0
r 0.125000 67 0
r 0.125000 68 0
r 0.125000 69 0
r 0.125000 70 0
r 0.125000 71 0
r 0.125000 72 0
r 0.125000 73 0
r 0.125000 74 0
r 0.125000 75 0
r 0.125000 76 0
r 0.125000 77 0
r 0.125000 78 0
r 0.125000 79 0
r 0.125000 80 0
r 0.125000 81 0
r 0.125000 82 0
r 0.125000 83 0
r 0.125000 84 0
r 0.125000 85 0
r 0.125000 86 0
r 0.125000 87 0
r 0.125000 88 0
r 0.125000 89 0
r 0.125000 90 0
e 92 0
e 93 0
e 94 0
e 95 0
e 96 0
e 97 0
e 98 0
e 99 0
e 100 0
e 101 0
e 102 0
e 103 0
e 104 0
e 105 0
e 106 0
e 107 0
e 108 0
e 109 0
e 110 0
e 111 0
e 112 0
e 113 0
e 114 0
e 115 0
e 116 0
e 117 0
e 118 0
e 119 0
e 120 0
e 121 0
e 122 0
e 123 0
e 124 0
e 125 0
e 126 0
e 127 0
e 128 0
e 129 0
e 130 0
e 131 0
e 132 0
e 133 0
e 134 0
e 135 0
e 136 0
e 137 0
e 138 0
e 139 0
e 140 0
e 141 0
e 142 0
e 143 0
e 144 0
e 145 0
e 146 0
e 147 0
e 148 0
e 149 0
e 150 0
e 151 0
e 152 0
e 153 0
e 154 0
e 155 0
e 156 0
e 157 0
e 158 0
e 159 0
e 160 0
e 161 0
e 162 0
e 163 0
e 164 0
e 165 0
e 166 0
e 167 0
e 168 0
e 169 0
e 170 0
e 171 0
e 172 0
e 173 0
e 174 0
e 175 0
e 176 0
e 177 0
e 178 0
e 179 0
e 180 0
e 181 0
e 182 0
e 183 0
e 184 0
e 185 0
e 186 0
e 187 0
e 188 0
e 189 0
e 190 0
e 191 0
e 192 0
e 193 0
e 194 0
e 195 0
e 196 0
e 197 0
e 198 0
e 199 0
e 200 0
e 201 0
e 202 0
e 203 0
e 204 0
e 205 0
e 206 0
e 207 0
e 208 0
e 209 0
e 210 0
e 211 0
e 212 0
e 213 0
e 214 0
e 215 0
e 216 0
e 217 0
e 218 0
e 219 0
e 220 0
e 221 0
e 222 0
e 223 0
e 224 0
e 225 0
e 226 0
e 227 0
e 228 0
e 229 0
e 230 0
e 231 0
e 232 0
e 233 0
e 234 0
e 235 0
e 236 0
e 237 0
e 238 0
e 239 0
e 240 0
e 241 0
e 242 0
e 243 0
e 244 0
e 245 0
e 246 0
e 247 0
e 248 0
e 249 0
e 250 0
e 251 0
e 252 0
e 253 0
e 254 0
e 255 0
e 256 0
e 257 0
e 258 0
e 259 0
e 260 0
e 261 0
e 262 0
e 263 0
e 264 0
e 265 0
e 266 0
e 267 0
e 268 0
e 269 0
e 270 0
e 271 0
e 272 0
e 273 0
e 274 0
e 275 0
e 276 0
e 277 0
e 278 0
e 279 0
e 280 0
e 281 0
e 282 0
e 283 0
e 284 0
e 285 0
e 286 0
e 287 0
e 288 0
e 289 0
e 290 0
e 291 0
e 292 0
e 293 0
e 294 0
e 295 0
e 296 0
e 297 0
e 298 0
e 299 0
e 300 0
e 301 0
e 302 0
e 303 0
e 304 0
e 305 0
e 306 0
e 307 0
e 308 0
e 309 0
e 310 0
e 311 0
e 312 0
e 313 0
e 314 0
e 315 0
e 316 0
e 317 0
e 318 0
e 319 0
e 320 0
e 321 0
e 322 0
e 323 0
e 324 0
e 325 0
e 326 0
e 327 0
e 328 0
e 329 0
e 330 0
e 331 0
e 332 0
e 333 0
e 334 0
e 335 0
e 336 0
e 337 0
e 338 0
e 339 0
e 340 0
e 341 0
e 342 0
e 343 0
e 344 0
e 345 0
e 346 0
e 347 0
e 348 0
e 349 0
e 350 0
e 351 0
e 352 0
e 353 0
e 354 0
e 355 0
e 356 0
e 357 0
e 358 0
e 359 0
e 360 0
e 361 0
e 362 0
e 363 0
e 364 0
e 365 0
e 366 0
e 367 0
e 368 0
e 369 0
e 370 0
e 371 0
e 372 0
e 373 0
e 374 0
e 375 0
e 376 0
e 377 0
e 378 0
e 379 0
e 380 0
e 381 0
e 382 0
e 383 0
e 384 0
e 385 0
e 386 0
e 387 0
e 388 0
e 389 0
e 390 0
e 391 0
e 392 0
e 393 0
e 394 0
e 395 0
e 396 0
e 397 0
e 398 0
e 399 0
e 400 0
e 401 0
e 402 0
e 403 0
e 404 0
e 405 0
e 406 0
e 407 0
e 408 0
e 409 0
e 410 0
e 411 0
e 412 0
e 413 0
e 414 0
e 415 0
e 416 0
e 417 0
e 418 0
e 419 0
e 420 0
e 421 0
e 422 0
e 423 0
e 424 0
e 425 0
e 426 0
e 427 0
e 428 0
e 429 0
e 430 0
e 431 0
e 432 0
e 433 0
e 434 0
e 435 0
e 436 0
e 437 0
e 438 0
e 439 0
e 440 0
e 441 0
e 442 0
e 443 0
e 444 0
e 445 0
e 446 0
e 447 0
e 448 0
e 449 0
e 450 0
e 451 0
e 452 0
e 453 0
e 454 0
e 455 0
e 456 0
e 457 0
e 458 0
e 459 0
e 460 0
e 461 0
e 462 0
e 463 0
e 464 0
e 465 0
e 466 0
e 467 0
e 468 0
e 469 0
e 470 0
e 471 0
e 472 0
e 473 0
e 474 0
e 475 0
e 476 0
e 477 0
e 478 0
e 479 0
e 480 0
e 481 0
e 482 0
e 483 0
e 484 0
e 485 0
e 486 0
e 487 0
e 488 0
e 489 0
e 490 0
e 491 0
e 492 0
e 493 0
e 494 0
e 495 0
e 496 0
e 497 0
e 498 0
e 499 0
e 500 0
e 501 0
e 502 0
e 503 0
e 504 0
e 505 0
e 506 0
e 507 0
e 508 0
e 509 0
e 510 0
e 511 0
e 512 0
e 513 0
e 514 0
e 515 0
e 516 0
e 517 0
e 518 0
e 519 0
e 520 0
e 521 0
e 522 0
e 523 0
e 524 0
e 525 0
e 526 0
e 527 0
e 528 0
e 529 0
e 530 0
e 531 0
e 532 0
e 533 0
e 534 0
e 535 0
e 536 0
e 537 0
e 538 0
e 539 0
e 540 0
e 541 0
e 542 0
e 543 0
e 544 0
e 545 0
e 546 0
e 547 0
e 548 0
e 549 0
e 550 0
e 551 0
e 552 0
e 553 0
e 554 0
e 555 0
e 556 0
e 557 0
e 558 0
e 559 0
e 560 0
e 561 0
e 562 0
e 563 0
e 564 0
e 565 0
e 566 0
e 567 0
e 568 0
e 569 0
e 570 0
e 571 0
e 572 0
e 573 0
e 574 0
e 575 0
e 576 0
e 577 0
e 578 0
e 579 0
e 580 0
e 581 0
e 582 0
e 583 0
e 584 0
e 585 0
e 586 0
e 587 0
e 588 0
e 589 0
e 590 0
e 591 0
e 592 0
e 593 0
e 594 0
e 595 0
e 596 0
e 597 0
e 598 0
e 599 0
e 600 0
e 601 0
e 602 0
e 603 0
e 604 0
e 605 0
e 606 0
e 607 0
e 608 0
e 609 0
e 610 0
e 611 0
e 612 0
e 613 0
e 614 0
e 615 0
e 616 0
e 617 0
e 618 0
e 619 0
e 620 0
e 621 0
e 622 0
e 623 0
e 624 0
e 625 0
e 626 0
e 627 0
e 628 0
e 629 0
e 630 0
e 631 0
e 632 0
e 633 0
e 634 0
e 635 0
e 636 0
e 637 0
e 638 0
e 639 0
e 640 0
e 641 0
e 642 0
e 643 0
e 644 0
e 645 0
e 646 0
e 647 0
e 648 0
e 91 0
92 10 11 0
-92 -10 0
-92 -11 0
93 -10 -11 0
-93 10 0
-93 11 0
94 92 93 0
-94 -92 0
-94 -93 0
95 -12 92 0
-95 12 0
-95 -92 0
96 12 -92 0
-96 -12 0
-96 92 0
97 -61 96 0
-97 61 0
-97 -96 0
98 61 -96 0
-98 -61 0
-98 96 0
99 97 98 0
-99 -97 0
-99 -98 0
100 95 -99 0
-100 -95 0
-100 99 0
101 13 95 0
-101 -13 0
-101 -95 0
102 -62 101 0
-102 62 0
-102 -101 0
103 62 -101 0
-103 -62 0
-103 101 0
104 102 103 0
-104 -102 0
-104 -103 0
105 -13 -95 0
-105 13 0
-105 95 0
106 -104 105 0
-106 104 0
-106 -105 0
107 14 104 0
-107 -14 0
-107 -104 0
108 -14 -104 0
-108 14 0
-108 104 0
109 107 108 0
-109 -107 0
-109 -108 0
110 -15 107 0
-110 15 0
-110 -107 0
111 15 -107 0
-111 -15 0
-111 107 0
112 110 111 0
-112 -110 0
-112 -111 0
113 -16 110 0
-113 16 0
-113 -110 0
114 16 -110 0
-114 -16 0
-114 110 0
115 113 114 0
-115 -113 0
-115 -114 0
116 -16 -110 0
-116 16 0
-116 110 0
117 17 116 0
-117 -17 0
-117 -116 0
118 -17 -116 0
-118 17 0
-118 116 0
119 117 118 0
-119 -117 0
-119 -118 0
120 -18 117 0
-120 18 0
-120 -117 0
121 18 -117 0
-121 -18 0
-121 117 0
122 120 121 0
-122 -120 0
-122 -121 0
123 19 120 0
-123 -19 0
-123 -120 0
124 -19 -120 0
-124 19 0
-124 120 0
125 123 124 0
-125 -123 0
-125 -124 0
126 -20 123 0
-126 20 0
-126 -123 0
127 20 -123 0
-127 -20 0
-127 123 0
128 126 127 0
-128 -126 0
-128 -127 0
129 -21 126 0
-129 21 0
-129 -126 0
130 21 -126 0
-130 -21 0
-130 126 0
131 129 130 0
-131 -129 0
-131 -130 0
132 -21 -126 0
-132 21 0
-132 126 0
133 -63 132 0
-133 63 0
-133 -132 0
134 63 -132 0
-134 -63 0
-134 132 0
135 133 134 0
-135 -133 0
-135 -134 0
136 22 -135 0
-136 -22 0
-136 135 0
137 -22 135 0
-137 22 0
-137 -135 0
138 136 137 0
-138 -136 0
-138 -137 0
139 23 -136 0
-139 -23 0
-139 136 0
140 -23 136 0
-140 23 0
-140 -136 0
141 -64 140 0
-141 64 0
-141 -140 0
142 64 -140 0
-142 -64 0
-142 140 0
143 141 142 0
-143 -141 0
-143 -142 0
144 139 -143 0
-144 -139 0
-144 143 0
145 -65 144 0
-145 65 0
-145 -144 0
146 65 -144 0
-146 -65 0
-146 144 0
147 145 146 0
-147 -145 0
-147 -146 0
148 -24 139 0
-148 24 0
-148 -139 0
149 24 -139 0
-149 -24 0
-149 139 0
150 148 149 0
-150 -148 0
-150 -149 0
151 -25 148 0
-151 25 0
-151 -148 0
152 25 -148 0
-152 -25 0
-152 148 0
153 151 152 0
-153 -151 0
-153 -152 0
154 -25 -148 0
-154 25 0
-154 148 0
155 -26 154 0
-155 26 0
-155 -154 0
156 26 -154 0
-156 -26 0
-156 154 0
157 155 156 0
-157 -155 0
-157 -156 0
158 -26 -154 0
-158 26 0
-158 154 0
159 27 158 0
-159 -27 0
-159 -158 0
160 -27 -158 0
-160 27 0
-160 158 0
161 159 160 0
-161 -159 0
-161 -160 0
162 -28 159 0
-162 28 0
-162 -159 0
163 28 -159 0
-163 -28 0
-163 159 0
164 162 163 0
-164 -162 0
-164 -163 0
165 -29 162 0
-165 29 0
-165 -162 0
166 29 -162 0
-166 -29 0
-166 162 0
167 165 166 0
-167 -165 0
-167 -166 0
168 -66 167 0
-168 66 0
-168 -167 0
169 66 -167 0
-169 -66 0
-169 167 0
170 168 169 0
-170 -168 0
-170 -169 0
171 -29 -162 0
-171 29 0
-171 162 0
172 30 -171 0
-172 -30 0
-172 171 0
173 -30 171 0
-173 30 0
-173 -171 0
174 172 173 0
-174 -172 0
-174 -173 0
175 10 174 0
-175 -10 0
-175 -174 0
176 -67 175 0
-176 67 0
-176 -175 0
177 67 -175 0
-177 -67 0
-177 175 0
178 176 177 0
-178 -176 0
-178 -177 0
179 -170 178 0
-179 170 0
-179 -178 0
180 -164 -179 0
-180 164 0
-180 179 0
181 161 -180 0
-181 -161 0
-181 180 0
182 157 -181 0
-182 -157 0
-182 181 0
183 153 -182 0
-183 -153 0
-183 182 0
184 -150 -183 0
-184 150 0
-184 183 0
185 -147 -184 0
-185 147 0
-185 184 0
186 138 -185 0
-186 -138 0
-186 185 0
187 131 -186 0
-187 -131 0
-187 186 0
188 -128 -187 0
-188 128 0
-188 187 0
189 125 -188 0
-189 -125 0
-189 188 0
190 -122 -189 0
-190 122 0
-190 189 0
191 119 -190 0
-191 -119 0
-191 190 0
192 115 -191 0
-192 -115 0
-192 191 0
193 -112 -192 0
-193 112 0
-193 192 0
194 109 -193 0
-194 -109 0
-194 193 0
195 106 -194 0
-195 -106 0
-195 194 0
196 -100 -195 0
-196 100 0
-196 195 0
197 94 -196 0
-197 -94 0
-197 196 0
198 -9 -197 0
-198 9 0
-198 197 0
199 -68 198 0
-199 68 0
-199 -198 0
200 68 -198 0
-200 -68 0
-200 198 0
201 199 200 0
-201 -199 0
-201 -200 0
202 -8 201 0
-202 8 0
-202 -201 0
203 -7 -202 0
-203 7 0
-203 202 0
204 -6 -203 0
-204 6 0
-204 203 0
205 -5 -204 0
-205 5 0
-205 204 0
206 -4 -205 0
-206 4 0
-206 205 0
207 -3 -206 0
-207 3 0
-207 206 0
208 -2 -207 0
-208 2 0
-208 207 0
209 -1 -208 0
-209 1 0
-209 208 0
210 -30 -171 0
-210 30 0
-210 171 0
211 209 210 0
-211 -209 0
-211 -210 0
212 2 3 0
-212 -2 0
-212 -3 0
213 4 -212 0
-213 -4 0
-213 212 0
214 5 -213 0
-214 -5 0
-214 213 0
215 6 -214 0
-215 -6 0
-215 214 0
216 7 -215 0
-216 -7 0
-216 215 0
217 8 -216 0
-217 -8 0
-217 216 0
218 9 -217 0
-218 -9 0
-218 217 0
219 -94 -218 0
-219 94 0
-219 218 0
220 100 -219 0
-220 -100 0
-220 219 0
221 -106 -220 0
-221 106 0
-221 220 0
222 -109 -221 0
-222 109 0
-222 221 0
223 112 -222 0
-223 -112 0
-223 222 0
224 -115 -223 0
-224 115 0
-224 223 0
225 -119 -224 0
-225 119 0
-225 224 0
226 122 -225 0
-226 -122 0
-226 225 0
227 -125 -226 0
-227 125 0
-227 226 0
228 128 -227 0
-228 -128 0
-228 227 0
229 -131 -228 0
-229 131 0
-229 228 0
230 -138 -229 0
-230 138 0
-230 229 0
231 -69 230 0
-231 69 0
-231 -230 0
232 69 -230 0
-232 -69 0
-232 230 0
233 231 232 0
-233 -231 0
-233 -232 0
234 147 233 0
-234 -147 0
-234 -233 0
235 150 -234 0
-235 -150 0
-235 234 0
236 -153 -235 0
-236 153 0
-236 235 0
237 -157 -236 0
-237 157 0
-237 236 0
238 -70 237 0
-238 70 0
-238 -237 0
239 70 -237 0
-239 -70 0
-239 237 0
240 238 239 0
-240 -238 0
-240 -239 0
241 -161 240 0
-241 161 0
-241 -240 0
242 164 -241 0
-242 -164 0
-242 241 0
243 170 -242 0
-243 -170 0
-243 242 0
244 -10 -243 0
-244 10 0
-244 243 0
245 -210 244 0
-245 210 0
-245 -244 0
246 211 245 0
-246 -211 0
-246 -245 0
247 40 41 0
-247 -40 0
-247 -41 0
248 -42 247 0
-248 42 0
-248 -247 0
249 43 248 0
-249 -43 0
-249 -248 0
250 44 -249 0
-250 -44 0
-250 249 0
251 -45 250 0
-251 45 0
-251 -250 0
252 -46 -251 0
-252 46 0
-252 251 0
253 47 252 0
-253 -47 0
-253 -252 0
254 -48 253 0
-254 48 0
-254 -253 0
255 49 254 0
-255 -49 0
-255 -254 0
256 -50 255 0
-256 50 0
-256 -255 0
257 -71 256 0
-257 71 0
-257 -256 0
258 71 -256 0
-258 -71 0
-258 256 0
259 257 258 0
-259 -257 0
-259 -258 0
260 -51 259 0
-260 51 0
-260 -259 0
261 52 260 0
-261 -52 0
-261 -260 0
262 53 -261 0
-262 -53 0
-262 261 0
263 -54 262 0
-263 54 0
-263 -262 0
264 -55 -263 0
-264 55 0
-264 263 0
265 -56 -264 0
-265 56 0
-265 264 0
266 -72 265 0
-266 72 0
-266 -265 0
267 72 -265 0
-267 -72 0
-267 265 0
268 266 267 0
-268 -266 0
-268 -267 0
269 57 -268 0
-269 -57 0
-269 268 0
270 -58 269 0
-270 58 0
-270 -269 0
271 -59 -270 0
-271 59 0
-271 270 0
272 -60 -271 0
-272 60 0
-272 271 0
273 -73 272 0
-273 73 0
-273 -272 0
274 73 -272 0
-274 -73 0
-274 272 0
275 273 274 0
-275 -273 0
-275 -274 0
276 -1 -275 0
-276 1 0
-276 275 0
277 1 31 0
-277 -1 0
-277 -31 0
278 275 277 0
-278 -275 0
-278 -277 0
279 -74 278 0
-279 74 0
-279 -278 0
280 74 -278 0
-280 -74 0
-280 278 0
281 279 280 0
-281 -279 0
-281 -280 0
282 -40 -41 0
-282 40 0
-282 41 0
283 247 282 0
-283 -247 0
-283 -282 0
284 42 -247 0
-284 -42 0
-284 247 0
285 248 284 0
-285 -248 0
-285 -284 0
286 -43 -248 0
-286 43 0
-286 248 0
287 249 286 0
-287 -249 0
-287 -286 0
288 -44 249 0
-288 44 0
-288 -249 0
289 250 288 0
-289 -250 0
-289 -288 0
290 45 -250 0
-290 -45 0
-290 250 0
291 251 290 0
-291 -251 0
-291 -290 0
292 -46 251 0
-292 46 0
-292 -251 0
293 46 -251 0
-293 -46 0
-293 251 0
294 -75 293 0
-294 75 0
-294 -293 0
295 75 -293 0
-295 -75 0
-295 293 0
296 294 295 0
-296 -294 0
-296 -295 0
297 292 -296 0
-297 -292 0
-297 296 0
298 -47 -252 0
-298 47 0
-298 252 0
299 253 298 0
-299 -253 0
-299 -298 0
300 48 -253 0
-300 -48 0
-300 253 0
301 254 300 0
-301 -254 0
-301 -300 0
302 -76 301 0
-302 76 0
-302 -301 0
303 76 -301 0
-303 -76 0
-303 301 0
304 302 303 0
-304 -302 0
-304 -303 0
305 -49 -254 0
-305 49 0
-305 254 0
306 255 305 0
-306 -255 0
-306 -305 0
307 -77 306 0
-307 77 0
-307 -306 0
308 77 -306 0
-308 -77 0
-308 306 0
309 307 308 0
-309 -307 0
-309 -308 0
310 50 -255 0
-310 -50 0
-310 255 0
311 -259 310 0
-311 259 0
-311 -310 0
312 -51 -259 0
-312 51 0
-312 259 0
313 51 259 0
-313 -51 0
-313 -259 0
314 312 313 0
-314 -312 0
-314 -313 0
315 -52 -260 0
-315 52 0
-315 260 0
316 -78 315 0
-316 78 0
-316 -315 0
317 78 -315 0
-317 -78 0
-317 315 0
318 316 317 0
-318 -316 0
-318 -317 0
319 261 -318 0
-319 -261 0
-319 318 0
320 -79 319 0
-320 79 0
-320 -319 0
321 79 -319 0
-321 -79 0
-321 319 0
322 320 321 0
-322 -320 0
-322 -321 0
323 -53 261 0
-323 53 0
-323 -261 0
324 262 323 0
-324 -262 0
-324 -323 0
325 54 -262 0
-325 -54 0
-325 262 0
326 263 325 0
-326 -263 0
-326 -325 0
327 -55 263 0
-327 55 0
-327 -263 0
328 55 -263 0
-328 -55 0
-328 263 0
329 327 328 0
-329 -327 0
-329 -328 0
330 -80 329 0
-330 80 0
-330 -329 0
331 80 -329 0
-331 -80 0
-331 329 0
332 330 331 0
-332 -330 0
-332 -331 0
333 -56 264 0
-333 56 0
-333 -264 0
334 -81 333 0
-334 81 0
-334 -333 0
335 81 -333 0
-335 -81 0
-335 333 0
336 334 335 0
-336 -334 0
-336 -335 0
337 56 -264 0
-337 -56 0
-337 264 0
338 -336 337 0
-338 336 0
-338 -337 0
339 -57 268 0
-339 57 0
-339 -268 0
340 269 339 0
-340 -269 0
-340 -339 0
341 58 -269 0
-341 -58 0
-341 269 0
342 270 341 0
-342 -270 0
-342 -341 0
343 -59 270 0
-343 59 0
-343 -270 0
344 -82 343 0
-344 82 0
-344 -343 0
345 82 -343 0
-345 -82 0
-345 343 0
346 344 345 0
-346 -344 0
-346 -345 0
347 59 -270 0
-347 -59 0
-347 270 0
348 -346 347 0
-348 346 0
-348 -347 0
349 -31 40 0
-349 31 0
-349 -40 0
350 -60 -349 0
-350 60 0
-350 349 0
351 -83 350 0
-351 83 0
-351 -350 0
352 83 -350 0
-352 -83 0
-352 350 0
353 351 352 0
-353 -351 0
-353 -352 0
354 348 353 0
-354 -348 0
-354 -353 0
355 -342 -354 0
-355 342 0
-355 354 0
356 -84 355 0
-356 84 0
-356 -355 0
357 84 -355 0
-357 -84 0
-357 355 0
358 356 357 0
-358 -356 0
-358 -357 0
359 340 358 0
-359 -340 0
-359 -358 0
360 338 -359 0
-360 -338 0
-360 359 0
361 -332 -360 0
-361 332 0
-361 360 0
362 -85 361 0
-362 85 0
-362 -361 0
363 85 -361 0
-363 -85 0
-363 361 0
364 362 363 0
-364 -362 0
-364 -363 0
365 -326 364 0
-365 326 0
-365 -364 0
366 324 -365 0
-366 -324 0
-366 365 0
367 -322 -366 0
-367 322 0
-367 366 0
368 -86 367 0
-368 86 0
-368 -367 0
369 86 -367 0
-369 -86 0
-369 367 0
370 368 369 0
-370 -368 0
-370 -369 0
371 314 370 0
-371 -314 0
-371 -370 0
372 -311 -371 0
-372 311 0
-372 371 0
373 -309 -372 0
-373 309 0
-373 372 0
374 304 -373 0
-374 -304 0
-374 373 0
375 299 -374 0
-375 -299 0
-375 374 0
376 297 -375 0
-376 -297 0
-376 375 0
377 -291 -376 0
-377 291 0
-377 376 0
378 289 -377 0
-378 -289 0
-378 377 0
379 287 -378 0
-379 -287 0
-379 378 0
380 -285 -379 0
-380 285 0
-380 379 0
381 283 -380 0
-381 -283 0
-381 380 0
382 -39 -381 0
-382 39 0
-382 381 0
383 -38 -382 0
-383 38 0
-383 382 0
384 -37 -383 0
-384 37 0
-384 383 0
385 -36 -384 0
-385 36 0
-385 384 0
386 -35 -385 0
-386 35 0
-386 385 0
387 -34 -386 0
-387 34 0
-387 386 0
388 -33 -387 0
-388 33 0
-388 387 0
389 -32 -388 0
-389 32 0
-389 388 0
390 32 33 0
-390 -32 0
-390 -33 0
391 34 -390 0
-391 -34 0
-391 390 0
392 35 -391 0
-392 -35 0
-392 391 0
393 36 -392 0
-393 -36 0
-393 392 0
394 37 -393 0
-394 -37 0
-394 393 0
395 38 -394 0
-395 -38 0
-395 394 0
396 39 -395 0
-396 -39 0
-396 395 0
397 -283 -396 0
-397 283 0
-397 396 0
398 285 -397 0
-398 -285 0
-398 397 0
399 -287 -398 0
-399 287 0
-399 398 0
400 -289 -399 0
-400 289 0
-400 399 0
401 -87 400 0
-401 87 0
-401 -400 0
402 87 -400 0
-402 -87 0
-402 400 0
403 401 402 0
-403 -401 0
-403 -402 0
404 291 403 0
-404 -291 0
-404 -403 0
405 -297 -404 0
-405 297 0
-405 404 0
406 -299 -405 0
-406 299 0
-406 405 0
407 -304 -406 0
-407 304 0
-407 406 0
408 309 -407 0
-408 -309 0
-408 407 0
409 311 -408 0
-409 -311 0
-409 408 0
410 -314 -409 0
-410 314 0
-410 409 0
411 322 -410 0
-411 -322 0
-411 410 0
412 -324 -411 0
-412 324 0
-412 411 0
413 326 -412 0
-413 -326 0
-413 412 0
414 332 -413 0
-414 -332 0
-414 413 0
415 -338 -414 0
-415 338 0
-415 414 0
416 -340 -415 0
-416 340 0
-416 415 0
417 342 -416 0
-417 -342 0
-417 416 0
418 -348 -417 0
-418 348 0
-418 417 0
419 -88 418 0
-419 88 0
-419 -418 0
420 88 -418 0
-420 -88 0
-420 418 0
421 419 420 0
-421 -419 0
-421 -420 0
422 -40 421 0
-422 40 0
-422 -421 0
423 275 422 0
-423 -275 0
-423 -422 0
424 389 423 0
-424 -389 0
-424 -423 0
425 -281 -424 0
-425 281 0
-425 424 0
426 211 425 0
-426 -211 0
-426 -425 0
427 276 -426 0
-427 -276 0
-427 426 0
428 245 427 0
-428 -245 0
-428 -427 0
429 -1 275 0
-429 1 0
-429 -275 0
430 -89 429 0
-430 89 0
-430 -429 0
431 89 -429 0
-431 -89 0
-431 429 0
432 430 431 0
-432 -430 0
-432 -431 0
433 -31 432 0
-433 31 0
-433 -432 0
434 -90 433 0
-434 90 0
-434 -433 0
435 90 -433 0
-435 -90 0
-435 433 0
436 434 435 0
-436 -434 0
-436 -435 0
437 423 -436 0
-437 -423 0
-437 436 0
438 -246 437 0
-438 246 0
-438 -437 0
439 95 96 0
-439 -95 0
-439 -96 0
440 101 105 0
-440 -101 0
-440 -105 0
441 14 -101 0
-441 -14 0
-441 101 0
442 -14 101 0
-442 14 0
-442 -101 0
443 441 442 0
-443 -441 0
-443 -442 0
444 -15 441 0
-444 15 0
-444 -441 0
445 15 -441 0
-445 -15 0
-445 441 0
446 444 445 0
-446 -444 0
-446 -445 0
447 -16 444 0
-447 16 0
-447 -444 0
448 16 -444 0
-448 -16 0
-448 444 0
449 447 448 0
-449 -447 0
-449 -448 0
450 -16 -444 0
-450 16 0
-450 444 0
451 17 450 0
-451 -17 0
-451 -450 0
452 -17 -450 0
-452 17 0
-452 450 0
453 451 452 0
-453 -451 0
-453 -452 0
454 -18 451 0
-454 18 0
-454 -451 0
455 18 -451 0
-455 -18 0
-455 451 0
456 454 455 0
-456 -454 0
-456 -455 0
457 19 454 0
-457 -19 0
-457 -454 0
458 -19 -454 0
-458 19 0
-458 454 0
459 457 458 0
-459 -457 0
-459 -458 0
460 -20 457 0
-460 20 0
-460 -457 0
461 20 -457 0
-461 -20 0
-461 457 0
462 460 461 0
-462 -460 0
-462 -461 0
463 -21 460 0
-463 21 0
-463 -460 0
464 21 -460 0
-464 -21 0
-464 460 0
465 463 464 0
-465 -463 0
-465 -464 0
466 -21 -460 0
-466 21 0
-466 460 0
467 22 466 0
-467 -22 0
-467 -466 0
468 -22 -466 0
-468 22 0
-468 466 0
469 467 468 0
-469 -467 0
-469 -468 0
470 23 -467 0
-470 -23 0
-470 467 0
471 -23 467 0
-471 23 0
-471 -467 0
472 470 471 0
-472 -470 0
-472 -471 0
473 -24 470 0
-473 24 0
-473 -470 0
474 24 -470 0
-474 -24 0
-474 470 0
475 473 474 0
-475 -473 0
-475 -474 0
476 -25 473 0
-476 25 0
-476 -473 0
477 25 -473 0
-477 -25 0
-477 473 0
478 476 477 0
-478 -476 0
-478 -477 0
479 -25 -473 0
-479 25 0
-479 473 0
480 -26 479 0
-480 26 0
-480 -479 0
481 26 -479 0
-481 -26 0
-481 479 0
482 480 481 0
-482 -480 0
-482 -481 0
483 -26 -479 0
-483 26 0
-483 479 0
484 27 483 0
-484 -27 0
-484 -483 0
485 -27 -483 0
-485 27 0
-485 483 0
486 484 485 0
-486 -484 0
-486 -485 0
487 -28 484 0
-487 28 0
-487 -484 0
488 28 -484 0
-488 -28 0
-488 484 0
489 487 488 0
-489 -487 0
-489 -488 0
490 -29 487 0
-490 29 0
-490 -487 0
491 29 -487 0
-491 -29 0
-491 487 0
492 490 491 0
-492 -490 0
-492 -491 0
493 -29 -487 0
-493 29 0
-493 487 0
494 30 -493 0
-494 -30 0
-494 493 0
495 -30 493 0
-495 30 0
-495 -493 0
496 494 495 0
-496 -494 0
-496 -495 0
497 10 496 0
-497 -10 0
-497 -496 0
498 492 -497 0
-498 -492 0
-498 497 0
499 -489 -498 0
-499 489 0
-499 498 0
500 486 -499 0
-500 -486 0
-500 499 0
501 482 -500 0
-501 -482 0
-501 500 0
502 478 -501 0
-502 -478 0
-502 501 0
503 -475 -502 0
-503 475 0
-503 502 0
504 472 -503 0
-504 -472 0
-504 503 0
505 469 -504 0
-505 -469 0
-505 504 0
506 465 -505 0
-506 -465 0
-506 505 0
507 -462 -506 0
-507 462 0
-507 506 0
508 459 -507 0
-508 -459 0
-508 507 0
509 -456 -508 0
-509 456 0
-509 508 0
510 453 -509 0
-510 -453 0
-510 509 0
511 449 -510 0
-511 -449 0
-511 510 0
512 -446 -511 0
-512 446 0
-512 511 0
513 443 -512 0
-513 -443 0
-513 512 0
514 440 -513 0
-514 -440 0
-514 513 0
515 -439 -514 0
-515 439 0
-515 514 0
516 94 -515 0
-516 -94 0
-516 515 0
517 -9 -516 0
-517 9 0
-517 516 0
518 -8 -517 0
-518 8 0
-518 517 0
519 -7 -518 0
-519 7 0
-519 518 0
520 -6 -519 0
-520 6 0
-520 519 0
521 -5 -520 0
-521 5 0
-521 520 0
522 -4 -521 0
-522 4 0
-522 521 0
523 -3 -522 0
-523 3 0
-523 522 0
524 -2 -523 0
-524 2 0
-524 523 0
525 -1 -524 0
-525 1 0
-525 524 0
526 -30 -493 0
-526 30 0
-526 493 0
527 525 526 0
-527 -525 0
-527 -526 0
528 -219 439 0
-528 219 0
-528 -439 0
529 -440 -528 0
-529 440 0
-529 528 0
530 -443 -529 0
-530 443 0
-530 529 0
531 446 -530 0
-531 -446 0
-531 530 0
532 -449 -531 0
-532 449 0
-532 531 0
533 -453 -532 0
-533 453 0
-533 532 0
534 456 -533 0
-534 -456 0
-534 533 0
535 -459 -534 0
-535 459 0
-535 534 0
536 462 -535 0
-536 -462 0
-536 535 0
537 -465 -536 0
-537 465 0
-537 536 0
538 -469 -537 0
-538 469 0
-538 537 0
539 -472 -538 0
-539 472 0
-539 538 0
540 475 -539 0
-540 -475 0
-540 539 0
541 -478 -540 0
-541 478 0
-541 540 0
542 -482 -541 0
-542 482 0
-542 541 0
543 -486 -542 0
-543 486 0
-543 542 0
544 489 -543 0
-544 -489 0
-544 543 0
545 -492 -544 0
-545 492 0
-545 544 0
546 -10 -545 0
-546 10 0
-546 545 0
547 -526 546 0
-547 526 0
-547 -546 0
548 527 547 0
-548 -527 0
-548 -547 0
549 -51 -256 0
-549 51 0
-549 256 0
550 52 549 0
-550 -52 0
-550 -549 0
551 53 -550 0
-551 -53 0
-551 550 0
552 -54 551 0
-552 54 0
-552 -551 0
553 -55 -552 0
-553 55 0
-553 552 0
554 -56 -553 0
-554 56 0
-554 553 0
555 57 554 0
-555 -57 0
-555 -554 0
556 -58 555 0
-556 58 0
-556 -555 0
557 -59 -556 0
-557 59 0
-557 556 0
558 -60 -557 0
-558 60 0
-558 557 0
559 -1 558 0
-559 1 0
-559 -558 0
560 277 -558 0
-560 -277 0
-560 558 0
561 292 293 0
-561 -292 0
-561 -293 0
562 256 310 0
-562 -256 0
-562 -310 0
563 -51 256 0
-563 51 0
-563 -256 0
564 51 -256 0
-564 -51 0
-564 256 0
565 563 564 0
-565 -563 0
-565 -564 0
566 -52 -549 0
-566 52 0
-566 549 0
567 550 566 0
-567 -550 0
-567 -566 0
568 -53 550 0
-568 53 0
-568 -550 0
569 551 568 0
-569 -551 0
-569 -568 0
570 54 -551 0
-570 -54 0
-570 551 0
571 552 570 0
-571 -552 0
-571 -570 0
572 -55 552 0
-572 55 0
-572 -552 0
573 55 -552 0
-573 -55 0
-573 552 0
574 572 573 0
-574 -572 0
-574 -573 0
575 -56 553 0
-575 56 0
-575 -553 0
576 56 -553 0
-576 -56 0
-576 553 0
577 575 576 0
-577 -575 0
-577 -576 0
578 -57 -554 0
-578 57 0
-578 554 0
579 555 578 0
-579 -555 0
-579 -578 0
580 58 -555 0
-580 -58 0
-580 555 0
581 556 580 0
-581 -556 0
-581 -580 0
582 -59 556 0
-582 59 0
-582 -556 0
583 59 -556 0
-583 -59 0
-583 556 0
584 582 583 0
-584 -582 0
-584 -583 0
585 -350 584 0
-585 350 0
-585 -584 0
586 -581 -585 0
-586 581 0
-586 585 0
587 579 -586 0
-587 -579 0
-587 586 0
588 577 -587 0
-588 -577 0
-588 587 0
589 574 -588 0
-589 -574 0
-589 588 0
590 -571 -589 0
-590 571 0
-590 589 0
591 569 -590 0
-591 -569 0
-591 590 0
592 567 -591 0
-592 -567 0
-592 591 0
593 565 -592 0
-593 -565 0
-593 592 0
594 -562 -593 0
-594 562 0
-594 593 0
595 306 -594 0
-595 -306 0
-595 594 0
596 -301 -595 0
-596 301 0
-596 595 0
597 299 -596 0
-597 -299 0
-597 596 0
598 561 -597 0
-598 -561 0
-598 597 0
599 -291 -598 0
-599 291 0
-599 598 0
600 289 -599 0
-600 -289 0
-600 599 0
601 287 -600 0
-601 -287 0
-601 600 0
602 -285 -601 0
-602 285 0
-602 601 0
603 283 -602 0
-603 -283 0
-603 602 0
604 -39 -603 0
-604 39 0
-604 603 0
605 -38 -604 0
-605 38 0
-605 604 0
606 -37 -605 0
-606 37 0
-606 605 0
607 -36 -606 0
-607 36 0
-607 606 0
608 -35 -607 0
-608 35 0
-608 607 0
609 -34 -608 0
-609 34 0
-609 608 0
610 -33 -609 0
-610 33 0
-610 609 0
611 -32 -610 0
-611 32 0
-611 610 0
612 291 -400 0
-612 -291 0
-612 400 0
613 -561 -612 0
-613 561 0
-613 612 0
614 -299 -613 0
-614 299 0
-614 613 0
615 301 -614 0
-615 -301 0
-615 614 0
616 -306 -615 0
-616 306 0
-616 615 0
617 562 -616 0
-617 -562 0
-617 616 0
618 -565 -617 0
-618 565 0
-618 617 0
619 -567 -618 0
-619 567 0
-619 618 0
620 -569 -619 0
-620 569 0
-620 619 0
621 571 -620 0
-621 -571 0
-621 620 0
622 -574 -621 0
-622 574 0
-622 621 0
623 -577 -622 0
-623 577 0
-623 622 0
624 -579 -623 0
-624 579 0
-624 623 0
625 581 -624 0
-625 -581 0
-625 624 0
626 -584 -625 0
-626 584 0
-626 625 0
627 -40 -626 0
-627 40 0
-627 626 0
628 -558 627 0
-628 558 0
-628 -627 0
629 611 628 0
-629 -611 0
-629 -628 0
630 560 -629 0
-630 -560 0
-630 629 0
631 527 630 0
-631 -527 0
-631 -630 0
632 559 -631 0
-632 -559 0
-632 631 0
633 547 632 0
-633 -547 0
-633 -632 0
634 -1 -558 0
-634 1 0
-634 558 0
635 -31 -634 0
-635 31 0
-635 634 0
636 628 635 0
-636 -628 0
-636 -635 0
637 -548 636 0
-637 548 0
-637 -636 0
638 -246 548 0
-638 246 0
-638 -548 0
639 246 -548 0
-639 -246 0
-639 548 0
640 638 639 0
-640 -638 0
-640 -639 0
641 428 -633 0
-641 -428 0
-641 633 0
642 -428 633 0
-642 428 0
-642 -633 0
643 641 642 0
-643 -641 0
-643 -642 0
644 438 -637 0
-644 -438 0
-644 637 0
645 -438 637 0
-645 438 0
-645 -637 0
646 644 645 0
-646 -644 0
-646 -645 0
647 -643 -646 0
-647 643 0
-647 646 0
648 -640 -647 0
-648 640 0
-648 647 0
91 648 0
-91 -648 0
91 0
